benchmarks/VRPTW/TSPTW/ins/n200w20.005.txt
!! n200w20.005    20.24 1127


CUST NO.   XCOORD.   YCOORD.    DEMAND   READY TIME   DUE DATE   SERVICE TIME


    1      49.00      36.00       0.00       0.00    1141.00       0.00
    2      14.00       9.00       0.00     271.00     280.00       0.00
    3       2.00       8.00       0.00     241.00     271.00       0.00
    4       9.00       9.00       0.00     266.00     284.00       0.00
    5      31.00       9.00       0.00     298.00     313.00       0.00
    6      33.00      44.00       0.00     552.00     580.00       0.00
    7      29.00       5.00       0.00     280.00     300.00       0.00
    8      49.00      15.00       0.00     376.00     407.00       0.00
    9      11.00      26.00       0.00     183.00     205.00       0.00
   10      44.00       2.00       0.00     898.00     918.00       0.00
   11      39.00       9.00       0.00     332.00     358.00       0.00
   12      17.00      19.00       0.00     489.00     512.00       0.00
   13      18.00      47.00       0.00     118.00     131.00       0.00
   14      11.00      38.00       0.00     149.00     169.00       0.00
   15       9.00       0.00       0.00     802.00     821.00       0.00
   16      14.00      20.00       0.00     203.00     228.00       0.00
   17       1.00      13.00       0.00     234.00     264.00       0.00
   18      14.00      36.00       0.00     176.00     192.00       0.00
   19      31.00      43.00       0.00     553.00     570.00       0.00
   20      34.00      18.00       0.00     843.00     859.00       0.00
   21      46.00      35.00       0.00       0.00       8.00       0.00
   22      20.00      23.00       0.00     482.00     506.00       0.00
   23       6.00      15.00       0.00     238.00     249.00       0.00
   24      37.00      50.00       0.00     569.00     594.00       0.00
   25       5.00      19.00       0.00     229.00     257.00       0.00
   26      12.00      34.00       0.00     617.00     636.00       0.00
   27      21.00      38.00       0.00     103.00     119.00       0.00
   28      49.00      26.00       0.00     405.00     430.00       0.00
   29      12.00      48.00       0.00     645.00     679.00       0.00
   30      50.00      13.00       0.00     380.00     388.00       0.00
   31      36.00      49.00       0.00     561.00     583.00       0.00
   32      19.00       1.00       0.00     753.00     777.00       0.00
   33      48.00      45.00       0.00      19.00      40.00       0.00
   34      35.00      11.00       0.00     331.00     340.00       0.00
   35      46.00      16.00       0.00     353.00     389.00       0.00
   36       6.00      50.00       0.00     652.00     666.00       0.00
   37      40.00      38.00       0.00       0.00      18.00       0.00
   38       9.00      30.00       0.00     174.00     209.00       0.00
   39       2.00      43.00       0.00     642.00     649.00       0.00
   40      25.00      28.00       0.00      84.00      91.00       0.00
   41      19.00      15.00       0.00     488.00     502.00       0.00
   42       9.00      10.00       0.00     714.00     734.00       0.00
   43      12.00      30.00       0.00     174.00     189.00       0.00
   44      20.00      29.00       0.00      92.00     108.00       0.00
   45      49.00      26.00       0.00     402.00     420.00       0.00
   46      47.00       4.00       0.00     889.00     923.00       0.00
   47       3.00      16.00       0.00     232.00     256.00       0.00
   48      49.00      39.00       0.00     420.00     439.00       0.00
   49      33.00      24.00       0.00     450.00     462.00       0.00
   50       8.00       4.00       0.00     732.00     751.00       0.00
   51       6.00      17.00       0.00     227.00     250.00       0.00
   52      45.00      27.00       0.00     421.00     452.00       0.00
   53      23.00       1.00       0.00     812.00     841.00       0.00
   54      17.00      10.00       0.00     268.00     286.00       0.00
   55       9.00      14.00       0.00     690.00     721.00       0.00
   56      37.00      39.00       0.00       4.00      29.00       0.00
   57       9.00      25.00       0.00     217.00     232.00       0.00
   58      23.00      36.00       0.00     524.00     539.00       0.00
   59      23.00      31.00       0.00      80.00     104.00       0.00
   60      46.00      25.00       0.00     403.00     424.00       0.00
   61      27.00       8.00       0.00     311.00     314.00       0.00
   62       2.00      18.00       0.00     689.00     704.00       0.00
   63      27.00       3.00       0.00     763.00     776.00       0.00
   64      50.00      23.00       0.00     396.00     419.00       0.00
   65      29.00      30.00       0.00     519.00     530.00       0.00
   66      31.00      10.00       0.00     304.00     322.00       0.00
   67      25.00      46.00       0.00     547.00     569.00       0.00
   68      13.00      19.00       0.00     208.00     232.00       0.00
   69      30.00      45.00       0.00     547.00     576.00       0.00
   70      28.00      31.00       0.00      68.00      95.00       0.00
   71      21.00      13.00       0.00     481.00     513.00       0.00
   72      38.00      21.00       0.00     435.00     458.00       0.00
   73      14.00      46.00       0.00     125.00     138.00       0.00
   74      12.00      42.00       0.00     138.00     150.00       0.00
   75      19.00      46.00       0.00     143.00     152.00       0.00
   76      34.00       8.00       0.00     291.00     317.00       0.00
   77      21.00       6.00       0.00     284.00     296.00       0.00
   78      34.00      34.00       0.00     866.00     889.00       0.00
   79      31.00      28.00       0.00     458.00     480.00       0.00
   80       7.00      40.00       0.00     145.00     177.00       0.00
   81      39.00      27.00       0.00     427.00     461.00       0.00
   82      20.00      46.00       0.00     115.00     127.00       0.00
   83      19.00      17.00       0.00     487.00     511.00       0.00
   84      12.00      44.00       0.00     115.00     139.00       0.00
   85      28.00      25.00       0.00     466.00     480.00       0.00
   86      42.00      34.00       0.00      56.00      70.00       0.00
   87      40.00      35.00       0.00       8.00      14.00       0.00
   88      36.00      11.00       0.00     329.00     352.00       0.00
   89       3.00      12.00       0.00     236.00     254.00       0.00
   90      50.00      33.00       0.00      39.00      54.00       0.00
   91      20.00      43.00       0.00     103.00     126.00       0.00
   92      35.00      21.00       0.00     450.00     461.00       0.00
   93      38.00      19.00       0.00     441.00     458.00       0.00
   94      26.00       6.00       0.00     277.00     303.00       0.00
   95      44.00      15.00       0.00     379.00     391.00       0.00
   96      50.00      27.00       0.00     397.00     412.00       0.00
   97      46.00      18.00       0.00     355.00     377.00       0.00
   98       7.00       1.00       0.00     724.00     746.00       0.00
   99      12.00       1.00       0.00     743.00     766.00       0.00
  100      40.00      20.00       0.00     885.00     904.00       0.00
  101      15.00      32.00       0.00     165.00     195.00       0.00
  102      28.00      35.00       0.00      73.00      76.00       0.00
  103      20.00      38.00       0.00     539.00     558.00       0.00
  104      32.00      44.00       0.00     581.00     603.00       0.00
  105      22.00      41.00       0.00     583.00     607.00       0.00
  106      28.00      35.00       0.00     511.00     535.00       0.00
  107       1.00       1.00       0.00     945.00     971.00       0.00
  108      39.00       4.00       0.00     346.00     357.00       0.00
  109      16.00      31.00       0.00      85.00     119.00       0.00
  110      30.00      12.00       0.00     305.00     334.00       0.00
  111      46.00       3.00       0.00     905.00     912.00       0.00
  112      49.00      18.00       0.00     365.00     380.00       0.00
  113      13.00      40.00       0.00     134.00     138.00       0.00
  114      43.00      41.00       0.00      18.00      25.00       0.00
  115      30.00      33.00       0.00      68.00      92.00       0.00
  116      33.00      11.00       0.00     300.00     314.00       0.00
  117      15.00      44.00       0.00     128.00     153.00       0.00
  118      21.00      23.00       0.00     509.00     526.00       0.00
  119      19.00      39.00       0.00     102.00     119.00       0.00
  120      17.00       4.00       0.00     277.00     289.00       0.00
  121      49.00      38.00       0.00      34.00      46.00       0.00
  122       3.00      49.00       0.00     650.00     667.00       0.00
  123      42.00       8.00       0.00     336.00     359.00       0.00
  124      31.00      48.00       0.00     588.00     607.00       0.00
  125      19.00      11.00       0.00     791.00     795.00       0.00
  126      16.00       0.00       0.00     749.00     762.00       0.00
  127      25.00      40.00       0.00     523.00     543.00       0.00
  128      19.00      46.00       0.00     116.00     132.00       0.00
  129      31.00      14.00       0.00     318.00     331.00       0.00
  130      44.00       1.00       0.00    1063.00    1086.00       0.00
  131       5.00       6.00       0.00     244.00     277.00       0.00
  132      22.00      32.00       0.00      76.00     106.00       0.00
  133      36.00      23.00       0.00     432.00     468.00       0.00
  134      24.00       9.00       0.00     762.00     799.00       0.00
  135       4.00      16.00       0.00     224.00     261.00       0.00
  136      26.00      24.00       0.00     472.00     477.00       0.00
  137      42.00      45.00       0.00      28.00      38.00       0.00
  138       3.00      49.00       0.00     995.00    1021.00       0.00
  139      26.00      16.00       0.00     779.00     806.00       0.00
  140      38.00      39.00       0.00      10.00      34.00       0.00
  141      44.00      17.00       0.00     845.00     862.00       0.00
  142      19.00      45.00       0.00     102.00     136.00       0.00
  143      23.00      34.00       0.00      78.00     107.00       0.00
  144      15.00      43.00       0.00     148.00     163.00       0.00
  145      22.00       1.00       0.00     759.00     769.00       0.00
  146      44.00      44.00       0.00      21.00      42.00       0.00
  147      24.00      28.00       0.00     466.00     493.00       0.00
  148      29.00      44.00       0.00     603.00     626.00       0.00
  149      11.00      20.00       0.00     215.00     218.00       0.00
  150       6.00      28.00       0.00     182.00     199.00       0.00
  151      42.00      11.00       0.00     347.00     367.00       0.00
  152      36.00      33.00       0.00      50.00      76.00       0.00
  153      35.00      39.00       0.00       1.00      32.00       0.00
  154      20.00      33.00       0.00     107.00     128.00       0.00
  155      43.00      34.00       0.00       5.00      19.00       0.00
  156      27.00      15.00       0.00     308.00     338.00       0.00
  157      15.00      41.00       0.00     136.00     145.00       0.00
  158      43.00      45.00       0.00    1104.00    1131.00       0.00
  159      35.00       7.00       0.00     915.00     935.00       0.00
  160      34.00      37.00       0.00      50.00      76.00       0.00
  161      38.00      45.00       0.00     568.00     591.00       0.00
  162      45.00       3.00       0.00     898.00     924.00       0.00
  163      27.00      14.00       0.00     310.00     338.00       0.00
  164      18.00       8.00       0.00     262.00     289.00       0.00
  165       7.00      19.00       0.00     221.00     258.00       0.00
  166       5.00      41.00       0.00     669.00     676.00       0.00
  167       7.00      22.00       0.00     210.00     244.00       0.00
  168      15.00      10.00       0.00     697.00     733.00       0.00
  169      47.00      32.00       0.00     409.00     424.00       0.00
  170      14.00      22.00       0.00     206.00     212.00       0.00
  171      35.00      35.00       0.00      53.00      84.00       0.00
  172       9.00      10.00       0.00     262.00     283.00       0.00
  173      38.00      11.00       0.00     335.00     355.00       0.00
  174       8.00      18.00       0.00     683.00     704.00       0.00
  175      12.00      38.00       0.00     164.00     186.00       0.00
  176      17.00       8.00       0.00     264.00     283.00       0.00
  177      10.00      28.00       0.00     188.00     210.00       0.00
  178      16.00      36.00       0.00     154.00     179.00       0.00
  179      11.00      42.00       0.00     131.00     151.00       0.00
  180      47.00      34.00       0.00      28.00      58.00       0.00
  181      19.00      40.00       0.00     114.00     124.00       0.00
  182      24.00      28.00       0.00      67.00     104.00       0.00
  183      27.00      12.00       0.00     303.00     335.00       0.00
  184      25.00      34.00       0.00     610.00     626.00       0.00
  185      23.00      23.00       0.00     477.00     505.00       0.00
  186      11.00      10.00       0.00     251.00     277.00       0.00
  187       1.00       2.00       0.00     728.00     755.00       0.00
  188      37.00       8.00       0.00     356.00     368.00       0.00
  189      47.00      40.00       0.00      37.00      55.00       0.00
  190       2.00      11.00       0.00     724.00     744.00       0.00
  191      11.00      20.00       0.00     220.00     234.00       0.00
  192      45.00      32.00       0.00      43.00      64.00       0.00
  193      49.00      15.00       0.00     376.00     384.00       0.00
  194      42.00      24.00       0.00     845.00     881.00       0.00
  195      26.00      50.00       0.00     554.00     554.00       0.00
  196      14.00      28.00       0.00     197.00     217.00       0.00
  197      20.00      43.00       0.00     543.00     547.00       0.00
  198      35.00      46.00       0.00     557.00     567.00       0.00
  199      35.00       3.00       0.00     354.00     369.00       0.00
  200      18.00      30.00       0.00     102.00     120.00       0.00
  201      39.00      47.00       0.00    1102.00    1124.00       0.00
  999       0.00       0.00       0.00       0.00       0.00       0.00